% Auto-generated by scripts/generate_dzn.py
% problem_type   = regex
% instance       = regex_95
% source_json    = instances_json/2_high_blowup/regex_95.json
% blowup         = 109.65217391304348
% representation = NFA

mode = 1;

var_count = 20;
n_constraints = 2;
Q = 15;
S = 2;
q0 = [1, 1];
F = [{15}, {8}];
weights = [9, 2, 9, 1, 8, 9, 9, 1, 5, 9, 2, 1, 7, 10, 9, 3, 1, 5, 6, 8];
d_dfa = array3d(1..2, 1..15, 1..2, [
  % k = 1
    0, 0,
    0, 0,
    0, 0,
    0, 0,
    0, 0,
    0, 0,
    0, 0,
    0, 0,
    0, 0,
    0, 0,
    0, 0,
    0, 0,
    0, 0,
    0, 0,
    0, 0,

  % k = 2
    0, 0,
    0, 0,
    0, 0,
    0, 0,
    0, 0,
    0, 0,
    0, 0,
    0, 0,
    0, 0,
    0, 0,
    0, 0,
    0, 0,
    0, 0,
    0, 0,
    0, 0
]);
d_nfa = array3d(1..2, 1..15, 1..2, [
  % k = 1
    {1}, {1, 2},
    {}, {3},
    {4}, {4},
    {5}, {5},
    {6}, {6},
    {7}, {7},
    {8}, {8},
    {9}, {9},
    {10}, {10},
    {11}, {11},
    {12}, {12},
    {13}, {13},
    {14}, {14},
    {15}, {15},
    {}, {},

  % k = 2
    {1}, {2},
    {2}, {3},
    {3}, {4},
    {4}, {5},
    {5}, {6},
    {6}, {7},
    {7}, {8},
    {8}, {},
    {}, {},
    {}, {},
    {}, {},
    {}, {},
    {}, {},
    {}, {},
    {}, {}
]);
